RAW/XT/fspd-long/X-n125-k30.vrp_seed-8.out
49992	230.698	378.083
