RAW/XT/fspd-long/X-n125-k30.vrp_seed-8.sol
Route #1: 14 123 44 52 90 102
Route #2: 3 31
Route #3: 113 39 120 57
Route #4: 26 93
Route #5: 86 111
Route #6: 96 38 60
Route #7: 92 87 114 11 19 9 13
Route #8: 74 42 81 43 106
Route #9: 32 33 53
Route #10: 75 45 54
Route #11: 15 116 66 23 24
Route #12: 82 49 56
Route #13: 18 112
Route #14: 72 98 69
Route #15: 51 105 89 88 115
Route #16: 35 103
Route #17: 48 5 8 10
Route #18: 101 77 7 107 4 20 95
Route #19: 17 78 28 59 70 6 34 2 124 50
Route #20: 61 83 122
Route #21: 108 27 1 46 63 79 36 55 30
Route #22: 91 21 76
Route #23: 64 119 71 104 29 80 58
Route #24: 94 65 41 67 121 84
Route #25: 97 16 99 110 73
Route #26: 68 47 22 40 118 25 109 117 85 62
Route #27: 37 12 100
Cost 49992.000000